50
    1   140   157
    2    94    78
    3   186   152
    4   472   517
    5   144   122
    6   280   267
    7    87    91
    8   144   181
    9   438   379
   10   311   252
   11    94    41
   12   448   485
   13   566   594
   14   453   406
   15   166   202
   16   486   542
   17    35     3
   18   143   114
   19   257   207
   20   465   472
   21   187   211
   22    49    97
   23   401   354
   24   235   248
   25    18    42
   26   540   498
   27   243   264
   28   322   289
   29   232   179
   30   456   489
   31   537   527
   32   266   269
   33   527   529
   34    92   143
   35   552   514
   36   144   131
   37   508   530
   38   578   534
   39   521   506
   40   486   536
   41   301   309
   42    67    83
   43    61    60
   44   167   191
   45   496   445
   46   363   380
   47    14    39
   48   646   595
   49   300   341
   50     1    34
601
